0 3
0 5
0 7
0 10
0 11
0 12
0 13
0 14
0 15
1 2
1 4
1 7
1 11
1 12
2 3
2 9
2 11
2 13
2 15
3 10
3 12
4 6
4 7
4 9
4 15
5 8
5 10
5 11
5 12
5 14
6 8
6 9
6 12
6 15
7 8
7 10
7 12
7 13
7 15
8 14
8 15
9 10
9 12
9 13
9 15
10 11
10 12
11 12
11 14
12 13
12 14
12 15
13 14
14 15
